21398,6576,3989,1869,4796,13027,11833,6625,2631,3181,2028,24945,24947,11264,16871,3762,15765,5583,12353,1911,14250,26008,5143,12239,8957,8956,13987,19621,7703,6761,3774,10714,6597,22041,22225,4785,5954,22509,20445,25795,23220,1930,11873,6154,1773,15416,15770,25089,24325,23290,22,22698,16473,2691,6661,20173,16094,24088,14212,24261,23540,9078,4527,17494,17917,24841,11995,25091,704,12854,13427,12390,8671,19322,14341,16062,19611,22236,20365,18257,10996,3203,20324,24055,2098,24741,2512,21398